\ This file has been generated by DOcplex
\ ENCODING=ISO-8859-1
\Problem name: rmp

Minimize
 obj: x_0 + x_1 + x_2 + x_3 + x_4 + x_5 + x_6 + x_7 + x_8 + x_9 + x_10 + x_11
      + x_12 + x_13 + x_14 + x_15 + x_16 + x_17 + x_18 + x_19 + x_20 + x_21
      + x_22 + x_23 + x_24 + x_25 + x_26 + x_27 + x_28 + x_29 + x_30 + x_31
      + x_32
Subject To
 c1: 2 x_0 + x_20 + 2 x_21 + x_23 + x_25 + x_31 >= 4
 c2: 2 x_1 + x_27 >= 4
 c3: x_2 + x_14 + x_26 >= 2
 c4: 3 x_3 + 2 x_20 + 2 x_27 >= 4
 c5: 2 x_4 + 2 x_16 + x_26 + 2 x_29 + x_31 >= 4
 c6: 4 x_5 + x_18 + x_19 + x_23 + x_31 + x_32 >= 2
 c7: 3 x_6 + 3 x_19 + x_28 + x_29 >= 2
 c8: 3 x_7 + x_15 + x_16 + x_17 + 3 x_18 + x_25 >= 4
 c9: 2 x_8 + 2 x_17 >= 2
 c10: 2 x_9 + x_14 + 2 x_15 + x_23 + x_25 + 2 x_28 + x_32 >= 4
 c11: 2 x_10 + 2 x_22 + 2 x_24 + x_32 >= 4
 c12: 2 x_11 + 2 x_30 >= 2
 c13: 48 x_12 + 2 x_14 + 2 x_16 + 4 x_21 + 8 x_22 + 5 x_30 >= 12
 c14: 30 x_13 + 2 x_15 + x_20 + 3 x_21 + 5 x_24 + 2 x_30 >= 5

Bounds
End
